============================[ Problem Statistics ]=============================|                                                                             ||  Number of variables:          4242                                         ||  Number of clauses:           10102                                         ||  Parse time:                   0.49 s                                       ||                                                                             |============================[ Search Statistics ]==============================| Conflicts |          ORIGINAL         |          LEARNT          | Progress ||           |    Vars  Clauses Literals |    Limit  Clauses Lit/Cl |          |===============================================================================|       100 |    1591     6307   781838 |     2312      100     53 | 62.501 % ||       250 |    1591     6307   781838 |     2543      250     75 | 62.495 % |===============================================================================restarts              : 3conflicts             : 275            (372 /sec)decisions             : 540            (0.00 % random) (731 /sec)propagations          : 11803          (15972 /sec)conflict literals     : 21275          (94.81 % deleted)CPU time              : 0.739 sSATISFIABLE